(set-logic ALL)
(declare-fun seed0_T_1 () Int)
(declare-fun seed0_T_2 () Bool)
(declare-fun seed0_var_0xINPUT_190909 () String)
(assert (and (or (>= seed0_T_1 (str.len seed0_var_0xINPUT_190909)) (>= (* seed0_T_1 seed0_T_1) (+ seed0_T_1 351))) (or (= seed0_T_2 (= seed0_T_1 0)) (xor (= (* seed0_T_1 seed0_T_1) (mod seed0_T_1 seed0_T_1)) (= (mod seed0_T_1 seed0_T_1) (mod seed0_T_1 seed0_T_1)))) (or seed0_T_2 (< (div seed0_T_1 seed0_T_1) (+ seed0_T_1 117)))))
(check-sat)
(exit)